# Solution for model GasLib-40
# Objective value = 3.8451478406399261e+01
loadshed[innode_1] 0
loadshed[innode_2] 0
loadshed[innode_3] 0
loadshed[innode_4] 0
loadshed[innode_5] 0
loadshed[innode_6] 0
loadshed[innode_7] 0
loadshed[innode_8] 0
loadshed[source_1] -2.2102487359277556e-01
loadshed[source_2] 1.4493927864510181e-01
loadshed[source_3] 3.1931040893935358e-01
loadshed[sink_1] 0
loadshed[sink_2] 0
loadshed[sink_3] 0
loadshed[sink_4] 0
loadshed[sink_5] 0
loadshed[sink_6] 0
loadshed[sink_7] 0
loadshed[sink_8] 0
loadshed[sink_9] 0
loadshed[sink_10] 0
loadshed[sink_11] 0
loadshed[sink_12] 1
loadshed[sink_13] 0
loadshed[sink_14] 0
loadshed[sink_15] 0
loadshed[sink_16] 0
loadshed[sink_17] 0
loadshed[sink_18] 0
loadshed[sink_19] 0
loadshed[sink_20] 0
loadshed[sink_21] 1
loadshed[sink_22] 0
loadshed[sink_23] 0
loadshed[sink_24] 3.5117320191995444e-01
loadshed[sink_25] 0
loadshed[sink_26] 0
loadshed[sink_27] 0
loadshed[sink_28] 0
loadshed[sink_29] 0
flow[source_1,sink_3] 1.9303216143985787e+02
flow[innode_1,sink_16] 1.6354166666666970e+01
flow[innode_6,sink_13] 6.8687601354479035e+00
flow[sink_13,sink_14] -9.4854065312187643e+00
flow[sink_14,sink_10] -2.5839573197885557e+01
flow[sink_25,sink_26] 1.3004289738018750e+02
flow[sink_26,sink_9] 3.2708333333334551e+01
flow[sink_9,sink_18] 1.6354166666667879e+01
flow[sink_26,sink_4] 8.0980397380186275e+01
flow[sink_4,sink_20] -1.5561939923016407e+01
flow[sink_18,sink_6] 0
flow[sink_25,innode_8] -1.6032382810652149e+02
flow[sink_6,sink_7] -4.9062500000000313e+01
flow[sink_6,sink_22] 3.2708333333333641e+01
flow[sink_7,sink_24] 1.0611021593600748e+01
flow[sink_22,sink_1] 1.6354166666666970e+01
flow[sink_24,sink_21] 0
flow[sink_21,sink_12] 0
flow[sink_7,sink_5] -7.6027688260267723e+01
flow[sink_5,sink_17] -92.3818549269344
flow[sink_17,sink_4] -8.0188170636536043e+01
flow[sink_17,sink_8] -2.8547850957065013e+01
flow[sink_3,sink_23] 16.3541666666697
flow[sink_8,sink_20] -4.4902017623731680e+01
flow[sink_25,sink_20] 7.6818124213414791e+01
flow[sink_25,sink_15] -69.760120289195
flow[sink_15,sink_29] 0
flow[sink_29,sink_28] 1.6354166666667879e+01
flow[sink_29,sink_2] 1.0246845362252834e+02
flow[sink_2,sink_15] 8.6114286955861672e+01
flow[sink_29,innode_7] -1.3517678695586289e+02
flow[innode_4,sink_19] 4.1233440207440275e+01
flow[sink_19,innode_3] 0
flow[innode_4,innode_5] 6.6376966323779271e+01
flow[sink_27,innode_5] -6.6376966323779271e+01
flow[sink_27,sink_19] 5.0022799657112607e+01
flow[sink_10,sink_11] 3.2708333333333641e+01
flow[sink_10,innode_2] -7.4902073197885812e+01
flow[sink_10,innode_3] 0
flow[innode_6,sink_25] -6.8687601354479035e+00
flow[sink_11,innode_1] 1.6354166666666970e+01
flow[sink_19,innode_2] 7.4902073197885812e+01
flow[source_3,innode_4] 1.0761040653121955e+02
flow[source_2,innode_7] 1.3517678695586289e+02
flow[sink_3,innode_8] 1.6032382810652149e+02
pressure[innode_1] 7.5232193041986250e+01
pressure[innode_2] 7.9342778273792135e+01
pressure[innode_3] 75.3838943495898
pressure[innode_4] 81.01325
pressure[innode_5] 8.0967592422494235e+01
pressure[innode_6] 7.4182610203647812e+01
pressure[innode_7] 81.01325
pressure[innode_8] 8.0368017225265035e+01
pressure[source_1] 81.01325
pressure[source_2] 81.01325
pressure[source_3] 81.01325
pressure[sink_1] 1.0387490297206735e+01
pressure[sink_2] 7.4802158930462539e+01
pressure[sink_3] 8.0368017225265035e+01
pressure[sink_4] 5.4727708001578058e+01
pressure[sink_5] 4.4781400095339194e+01
pressure[sink_6] 1.2488567907594108e+01
pressure[sink_7] 1.3162079085294240e+01
pressure[sink_8] 5.2740365114272073e+01
pressure[sink_9] 6.3066087143235073e+01
pressure[sink_10] 75.3838943495898
pressure[sink_11] 7.5232193041986250e+01
pressure[sink_12] 1.01325
pressure[sink_13] 7.4144743876897536e+01
pressure[sink_14] 7.4161718819863140e+01
pressure[sink_15] 74.5210147628348
pressure[sink_16] 7.4210543207168570e+01
pressure[sink_17] 5.1663180532168980e+01
pressure[sink_18] 6.2474344649435366e+01
pressure[sink_19] 7.9342778273792135e+01
pressure[sink_20] 5.5869404273402019e+01
pressure[sink_21] 1.01325
pressure[sink_22] 1.1451259439561746e+01
pressure[sink_23] 8.0203299213605248e+01
pressure[sink_24] 1.01325
pressure[sink_25] 7.4182610203647812e+01
pressure[sink_26] 6.5023765311119675e+01
pressure[sink_27] 8.0416786253452656e+01
pressure[sink_28] 7.7102518229767981e+01
pressure[sink_29] 7.7397800503385156e+01
interdiction[source_1,sink_3] 0
interdiction[innode_1,sink_16] 0
interdiction[innode_6,sink_13] 0
interdiction[sink_13,sink_14] 0
interdiction[sink_14,sink_10] 0
interdiction[sink_25,sink_26] 0
interdiction[sink_26,sink_9] 0
interdiction[sink_9,sink_18] 0
interdiction[sink_26,sink_4] 0
interdiction[sink_4,sink_20] 0
interdiction[sink_18,sink_6] 1
interdiction[sink_25,innode_8] 0
interdiction[sink_6,sink_7] 0
interdiction[sink_6,sink_22] 0
interdiction[sink_7,sink_24] 0
interdiction[sink_22,sink_1] 0
interdiction[sink_24,sink_21] 0
interdiction[sink_21,sink_12] 0
interdiction[sink_7,sink_5] 0
interdiction[sink_5,sink_17] 0
interdiction[sink_17,sink_4] 0
interdiction[sink_17,sink_8] 0
interdiction[sink_3,sink_23] 0
interdiction[sink_8,sink_20] 0
interdiction[sink_25,sink_20] 0
interdiction[sink_25,sink_15] 0
interdiction[sink_15,sink_29] 1
interdiction[sink_29,sink_28] 0
interdiction[sink_29,sink_2] 0
interdiction[sink_2,sink_15] 0
interdiction[sink_29,innode_7] 0
interdiction[innode_4,sink_19] 0
interdiction[sink_19,innode_3] 1
interdiction[innode_4,innode_5] 0
interdiction[sink_27,innode_5] 0
interdiction[sink_27,sink_19] 0
interdiction[sink_10,sink_11] 0
interdiction[sink_10,innode_2] 0
interdiction[sink_10,innode_3] 0
interdiction[innode_6,sink_25] 0
interdiction[sink_11,innode_1] 0
interdiction[sink_19,innode_2] 0
interdiction[source_3,innode_4] 0
interdiction[source_2,innode_7] 0
interdiction[sink_3,innode_8] 0
WCcheckFlow[source_1,sink_3] 39
WCcheckFlow[innode_1,sink_16] 1
WCcheckFlow[innode_6,sink_13] 13
WCcheckFlow[sink_13,sink_14] 12
WCcheckFlow[sink_14,sink_10] 11
WCcheckFlow[sink_25,sink_26] 15
WCcheckFlow[sink_26,sink_9] 2
WCcheckFlow[sink_9,sink_18] 1
WCcheckFlow[sink_26,sink_4] 12
WCcheckFlow[sink_4,sink_20] 1
WCcheckFlow[sink_18,sink_6] 0
WCcheckFlow[sink_25,innode_8] -36
WCcheckFlow[sink_6,sink_7] -3
WCcheckFlow[sink_6,sink_22] 2
WCcheckFlow[sink_7,sink_24] 3
WCcheckFlow[sink_22,sink_1] 1
WCcheckFlow[sink_24,sink_21] 2
WCcheckFlow[sink_21,sink_12] 1
WCcheckFlow[sink_7,sink_5] -7
WCcheckFlow[sink_5,sink_17] -8
WCcheckFlow[sink_17,sink_4] -10
WCcheckFlow[sink_17,sink_8] 1
WCcheckFlow[sink_3,sink_23] 1
WCcheckFlow[sink_8,sink_20] 0
WCcheckFlow[sink_25,sink_20] 0
WCcheckFlow[sink_25,sink_15] 6
WCcheckFlow[sink_15,sink_29] 0
WCcheckFlow[sink_29,sink_28] 1
WCcheckFlow[sink_29,sink_2] -4
WCcheckFlow[sink_2,sink_15] -5
WCcheckFlow[sink_29,innode_7] 2
WCcheckFlow[innode_4,sink_19] -4
WCcheckFlow[sink_19,innode_3] 0
WCcheckFlow[innode_4,innode_5] 2
WCcheckFlow[sink_27,innode_5] -1
WCcheckFlow[sink_27,sink_19] 0
WCcheckFlow[sink_10,sink_11] 3
WCcheckFlow[sink_10,innode_2] 6
WCcheckFlow[sink_10,innode_3] 1
WCcheckFlow[innode_6,sink_25] -14
WCcheckFlow[sink_11,innode_1] 2
WCcheckFlow[sink_19,innode_2] -5
WCcheckFlow[source_3,innode_4] -1
WCcheckFlow[source_2,innode_7] -1
WCcheckFlow[sink_3,innode_8] 37
